
  32    4
  10   10   10   10

   0   0   0   0   0   7 2 3 4 5 6 10 16 
   2   1   0   1   1   5 14 13 11 9 8 
  10   0   1   3   3   4 19 15 14 11 
   6   0   4   6   4   2 13 7 
  10   5   4   8   0   2 11 8 
   5   5   6   0   5   3 19 13 12 
   4   5   5   0   5   2 19 11 
   6   1   2   1   0   2 19 12 
   9   5   0   2   2   2 19 12 
   7   0   4   4   2   4 24 20 19 17 
   3   0   4   3   2   2 23 12 
   4   0   2   4   3   3 24 20 17 
   4   0   4   5   6   3 24 20 17 
   8   3   0   6   4   3 24 20 17 
   6   2   0   2   3   3 23 20 17 
   4   3   0   3   4   3 25 19 18 
   2   4   5   5   0   3 25 22 18 
   3   0   5   4   3   2 31 21 
   6   6   5   6   0   2 23 21 
   9   0   3   3   9   1 21 
   9   0   2   5   4   4 30 29 27 26 
   9   6   4   0   3   4 30 29 27 26 
   1   4   2   5   0   4 30 29 27 26 
   1   4   0   6   3   3 31 27 26 
   2   0   3   4   6   2 29 27 
   6   5   5   0   7   1 28 
   9   4   5   6   0   1 32
   3   0   3   4   7   1 32
   1   4   6   3   0   1 32
   5   5   9   2   0   1 32
   9   0   3   3   2   1 32
   0   0   0   0   0   0 
